; SPDX-License-Identifier: MPL-2.0
; Copyright (c) 2026 The RIINA Authors.
; Auto-generated from 02_FORMAL/coq/domains/SingaporeMAS_TRM.v (21 validations)
; Generated by scripts/generate-full-stack.py
;
; Translation Validation for SingaporeMAS_TRM
; Layer 9: Verifies compiler backend preserves formal semantics.
; Each assertion checks source IR ≡ target code for a proven property.

(set-logic QF_LIA)
(set-option :produce-models true)

; IR node representation
(declare-sort IRNode 0)
(declare-sort TargetNode 0)

; patch_deadline: source semantics (matches Coq)
(declare-fun source_patch_deadline () Bool)
(declare-fun target_patch_deadline () Bool)
(assert (= source_patch_deadline target_patch_deadline))

; cyber_hygiene_mfa: source semantics (matches Coq)
(declare-fun source_cyber_hygiene_mfa () Bool)
(declare-fun target_cyber_hygiene_mfa () Bool)
(assert (= source_cyber_hygiene_mfa target_cyber_hygiene_mfa))

; cyber_hygiene_patching: source semantics (matches Coq)
(declare-fun source_cyber_hygiene_patching () Bool)
(declare-fun target_cyber_hygiene_patching () Bool)
(assert (= source_cyber_hygiene_patching target_cyber_hygiene_patching))

; cyber_hygiene_network: source semantics (matches Coq)
(declare-fun source_cyber_hygiene_network () Bool)
(declare-fun target_cyber_hygiene_network () Bool)
(assert (= source_cyber_hygiene_network target_cyber_hygiene_network))

; cyber_hygiene_antimalware: source semantics (matches Coq)
(declare-fun source_cyber_hygiene_antimalware () Bool)
(declare-fun target_cyber_hygiene_antimalware () Bool)
(assert (= source_cyber_hygiene_antimalware target_cyber_hygiene_antimalware))

; cyber_hygiene_pam: source semantics (matches Coq)
(declare-fun source_cyber_hygiene_pam () Bool)
(declare-fun target_cyber_hygiene_pam () Bool)
(assert (= source_cyber_hygiene_pam target_cyber_hygiene_pam))

; cyber_hygiene_compliant: source semantics (matches Coq)
(declare-fun source_cyber_hygiene_compliant () Bool)
(declare-fun target_cyber_hygiene_compliant () Bool)
(assert (= source_cyber_hygiene_compliant target_cyber_hygiene_compliant))

; patch_applied_in_time: source semantics (matches Coq)
(declare-fun source_patch_applied_in_time () Bool)
(declare-fun target_patch_applied_in_time () Bool)
(assert (= source_patch_applied_in_time target_patch_applied_in_time))

; trm_governance: source semantics (matches Coq)
(declare-fun source_trm_governance () Bool)
(declare-fun target_trm_governance () Bool)
(assert (= source_trm_governance target_trm_governance))

; trm_security_testing: source semantics (matches Coq)
(declare-fun source_trm_security_testing () Bool)
(declare-fun target_trm_security_testing () Bool)
(assert (= source_trm_security_testing target_trm_security_testing))

; trm_resilience: source semantics (matches Coq)
(declare-fun source_trm_resilience () Bool)
(declare-fun target_trm_resilience () Bool)
(assert (= source_trm_resilience target_trm_resilience))

; mas_fully_compliant: source semantics (matches Coq)
(declare-fun source_mas_fully_compliant () Bool)
(declare-fun target_mas_fully_compliant () Bool)
(assert (= source_mas_fully_compliant target_mas_fully_compliant))

; count_mas_controls: source semantics (matches Coq)
(declare-fun source_count_mas_controls () Bool)
(declare-fun target_count_mas_controls () Bool)
(assert (= source_count_mas_controls target_count_mas_controls))

; mas_cyber_hygiene: translation preserves property (matches Coq: Theorem)
(declare-fun source_mas_cyber_hygiene () Bool)
(declare-fun target_mas_cyber_hygiene () Bool)
(assert (= source_mas_cyber_hygiene target_mas_cyber_hygiene))

; critical_patch_14_days: translation preserves property (matches Coq: Theorem)
(declare-fun source_critical_patch_14_days () Bool)
(declare-fun target_critical_patch_14_days () Bool)
(assert (= source_critical_patch_14_days target_critical_patch_14_days))

; critical_strictest: translation preserves property (matches Coq: Theorem)
(declare-fun source_critical_strictest () Bool)
(declare-fun target_critical_strictest () Bool)
(assert (= source_critical_strictest target_critical_strictest))

; trm_governance_proof: translation preserves property (matches Coq: Theorem)
(declare-fun source_trm_governance_proof () Bool)
(declare-fun target_trm_governance_proof () Bool)
(assert (= source_trm_governance_proof target_trm_governance_proof))

; mas_composition: translation preserves property (matches Coq: Theorem)
(declare-fun source_mas_composition () Bool)
(declare-fun target_mas_composition () Bool)
(assert (= source_mas_composition target_mas_composition))

; mas_license_coverage: translation preserves property (matches Coq: Theorem)
(declare-fun source_mas_license_coverage () Bool)
(declare-fun target_mas_license_coverage () Bool)
(assert (= source_mas_license_coverage target_mas_license_coverage))

; ch_requires_mfa: translation preserves property (matches Coq: Theorem)
(declare-fun source_ch_requires_mfa () Bool)
(declare-fun target_ch_requires_mfa () Bool)
(assert (= source_ch_requires_mfa target_ch_requires_mfa))

; ch_requires_patching: translation preserves property (matches Coq: Theorem)
(declare-fun source_ch_requires_patching () Bool)
(declare-fun target_ch_requires_patching () Bool)
(assert (= source_ch_requires_patching target_ch_requires_patching))

; ch_requires_network: translation preserves property (matches Coq: Theorem)
(declare-fun source_ch_requires_network () Bool)
(declare-fun target_ch_requires_network () Bool)
(assert (= source_ch_requires_network target_ch_requires_network))

; ch_requires_antimalware: translation preserves property (matches Coq: Theorem)
(declare-fun source_ch_requires_antimalware () Bool)
(declare-fun target_ch_requires_antimalware () Bool)
(assert (= source_ch_requires_antimalware target_ch_requires_antimalware))

; ch_requires_pam: translation preserves property (matches Coq: Theorem)
(declare-fun source_ch_requires_pam () Bool)
(declare-fun target_ch_requires_pam () Bool)
(assert (= source_ch_requires_pam target_ch_requires_pam))

; patch_critical_strictest: translation preserves property (matches Coq: Theorem)
(declare-fun source_patch_critical_strictest () Bool)
(declare-fun target_patch_critical_strictest () Bool)
(assert (= source_patch_critical_strictest target_patch_critical_strictest))

; patch_low_most_lenient: translation preserves property (matches Coq: Theorem)
(declare-fun source_patch_low_most_lenient () Bool)
(declare-fun target_patch_low_most_lenient () Bool)
(assert (= source_patch_low_most_lenient target_patch_low_most_lenient))

; patch_deadline_positive: translation preserves property (matches Coq: Theorem)
(declare-fun source_patch_deadline_positive () Bool)
(declare-fun target_patch_deadline_positive () Bool)
(assert (= source_patch_deadline_positive target_patch_deadline_positive))

; patch_critical_subsumes_all: translation preserves property (matches Coq: Theorem)
(declare-fun source_patch_critical_subsumes_all () Bool)
(declare-fun target_patch_critical_subsumes_all () Bool)
(assert (= source_patch_critical_subsumes_all target_patch_critical_subsumes_all))

; mas_full_requires_hygiene: translation preserves property (matches Coq: Theorem)
(declare-fun source_mas_full_requires_hygiene () Bool)
(declare-fun target_mas_full_requires_hygiene () Bool)
(assert (= source_mas_full_requires_hygiene target_mas_full_requires_hygiene))

; mas_full_requires_governance: translation preserves property (matches Coq: Theorem)
(declare-fun source_mas_full_requires_governance () Bool)
(declare-fun target_mas_full_requires_governance () Bool)
(assert (= source_mas_full_requires_governance target_mas_full_requires_governance))

; mas_full_requires_testing: translation preserves property (matches Coq: Theorem)
(declare-fun source_mas_full_requires_testing () Bool)
(declare-fun target_mas_full_requires_testing () Bool)
(assert (= source_mas_full_requires_testing target_mas_full_requires_testing))

; mas_full_requires_resilience: translation preserves property (matches Coq: Theorem)
(declare-fun source_mas_full_requires_resilience () Bool)
(declare-fun target_mas_full_requires_resilience () Bool)
(assert (= source_mas_full_requires_resilience target_mas_full_requires_resilience))

; count_mas_bounded: translation preserves property (matches Coq: Theorem)
(declare-fun source_count_mas_bounded () Bool)
(declare-fun target_count_mas_bounded () Bool)
(assert (= source_count_mas_bounded target_count_mas_bounded))

; mas_seven_licenses: translation preserves property (matches Coq: Theorem)
(declare-fun source_mas_seven_licenses () Bool)
(declare-fun target_mas_seven_licenses () Bool)
(assert (= source_mas_seven_licenses target_mas_seven_licenses))

; Verify all translation validations are satisfiable
(check-sat)
(exit)
